\ Model Cl_45_Ins_2.lp
\ LP format - for model browsing. Use MPS format to capture full model detail.
Maximize
 
Subject To
 obj1: y[0] = 0
 obj2: y[1] = 0
 obj1_Exp: - y[0] + 99 x[0] + 98 x[1] + 94 x[2] + 93 x[3] + 89 x[4]
   + 88 x[5] + 88 x[6] + 81 x[7] + 77 x[8] + 75 x[9] + 73 x[10] + 70 x[11]
   + 66 x[12] + 65 x[13] + 63 x[14] + 63 x[15] + 60 x[16] + 59 x[17]
   + 56 x[18] + 55 x[19] + 51 x[20] + 49 x[21] + 49 x[22] + 49 x[23]
   + 47 x[24] + 43 x[25] + 39 x[26] + 37 x[27] + 36 x[28] + 33 x[29]
   + 32 x[30] + 30 x[31] + 30 x[32] + 29 x[33] + 29 x[34] + 29 x[35]
   + 26 x[36] + 23 x[37] + 12 x[38] + 6 x[39] + 5 x[40] + 3 x[41] + 2 x[42]
   + x[43] + x[44] = 0
 obj2_Exp: - y[1] + 12 x[0] + 72 x[1] + 83 x[2] + 61 x[3] + 46 x[4]
   + 20 x[5] + 84 x[6] + 2 x[7] + 30 x[8] + 15 x[9] + 13 x[10] + 34 x[11]
   + 54 x[12] + 57 x[13] + 26 x[14] + 41 x[15] + 15 x[16] + 11 x[17]
   + 50 x[18] + 54 x[19] + 65 x[20] + 88 x[21] + 66 x[22] + 40 x[23]
   + 4 x[24] + 80 x[25] + 9 x[26] + 22 x[27] + 38 x[28] + 48 x[29]
   + 87 x[30] + 91 x[31] + 10 x[32] + 61 x[33] + 19 x[34] + 78 x[35]
   + 71 x[36] + 34 x[37] + 11 x[38] + 91 x[39] + 60 x[40] + 76 x[41]
   + 59 x[42] + 36 x[43] + 50 x[44] = 0
 Budget: 109 x[0] + 108 x[1] + 104 x[2] + 103 x[3] + 99 x[4] + 98 x[5]
   + 98 x[6] + 91 x[7] + 87 x[8] + 85 x[9] + 83 x[10] + 80 x[11] + 76 x[12]
   + 75 x[13] + 73 x[14] + 73 x[15] + 70 x[16] + 69 x[17] + 66 x[18]
   + 65 x[19] + 61 x[20] + 59 x[21] + 59 x[22] + 59 x[23] + 57 x[24]
   + 53 x[25] + 49 x[26] + 47 x[27] + 46 x[28] + 43 x[29] + 42 x[30]
   + 40 x[31] + 40 x[32] + 39 x[33] + 39 x[34] + 39 x[35] + 36 x[36]
   + 33 x[37] + 22 x[38] + 16 x[39] + 15 x[40] + 13 x[41] + 12 x[42]
   + 11 x[43] + 11 x[44] <= 1134
Bounds
Binaries
 x[0] x[1] x[2] x[3] x[4] x[5] x[6] x[7] x[8] x[9] x[10] x[11] x[12] x[13]
 x[14] x[15] x[16] x[17] x[18] x[19] x[20] x[21] x[22] x[23] x[24] x[25]
 x[26] x[27] x[28] x[29] x[30] x[31] x[32] x[33] x[34] x[35] x[36] x[37]
 x[38] x[39] x[40] x[41] x[42] x[43] x[44]
Generals
 y[0] y[1]
End
